NAME : XML100_1355_22
DIMENSION : 101
NB_CLUSTERS : 8
CLUSTERING_ALG : DBSCAN
CLUSTERING_PARAMS : eps(111), minSamples(3)
CLUSTERS
1 0
2 1 4 23 50 57 66 68 73 88 100
3 2 29 30 34 52 65
4 3 7 9 10 11 13 14 15 16 18 19 22 24 26 27 28 32 33 37 38 39 40 41 42 43 44 46 47 48 51 53 54 56 58 59 60 61 62 63 67 69 70 71 72 74 75 77 78 80 81 82 84 85 86 87 89 90 91 92 93 94 96 97 98 99
5 5 6 8 45 76 83 95
6 12 20 21 25 36 49 64
7 55 79
8 17 31 35
EOF